endtime = 20;
SERVICE = anon_enum(20);
start =     [ i | i in 0..19 ];
end   =     [ i | i in 1..20 ];
STYPE = { All };
stype =  [ All | i in 1..20 ]; 

TRUCK = { DD, T1,  T2  };
dtruck = DD;
ttype = [ DUMMY, SML, SML ];
maxsty = [1,2,3,0];

maxmaint = 8;
maintdur = [0,1,2,3];
maxsep = [ 0,1,3,0 ];

minwork = 20;
minservice = 70;

majorwork = 50;
prework = [ 0, 0, 0 ];

